u120_06
150 120 48 52
83 0
37 0
98 1
85 2
88 3
95 4
29 0
35 1
100 5
55 2
48 3
27 4
20 4
66 6
62 6
52 7
88 7
59 8
97 9
91 10
81 8
81 11
86 12
48 5
43 9
60 11
72 13
88 14
90 15
48 10
38 12
60 13
53 14
55 15
90 16
48 16
55 17
57 17
59 18
25 12
51 18
22 17
43 19
31 18
52 19
89 20
96 21
58 20
63 22
27 19
46 21
43 22
30 22
44 23
71 23
66 24
64 24
28 23
83 25
88 26
42 25
92 27
95 28
36 26
24 19
62 29
44 27
82 29
59 30
31 28
96 31
44 30
61 32
78 32
72 33
62 33
76 34
65 34
22 25
41 30
27 31
85 35
80 36
72 37
100 38
29 35
27 35
43 36
83 39
32 37
33 37
53 39
95 40
99 41
20 6
23 26
72 42
50 40
50 41
27 38
89 43
53 42
75 44
81 45
34 43
27 44
69 46
48 45
84 47
37 44
69 46
54 47
51 48
49 48
49 48
54 49
100 50
55 49
45 50
83 51